c gen rsets
c NSETS 20
c PERSET 10
c HARDNESS 0.80
c -A v B 144
c A v -B 189
c A v B 107
c -A v -B 100
p cnf 200 540
-1 6 0
-1 -7 0
-1 -8 0
-1 -9 0
-1 -10 0
-2 6 0
2 -7 0
2 -8 0
2 -9 0
-2 -10 0
3 -6 0
-3 -7 0
3 -8 0
3 9 0
3 -10 0
4 6 0
4 7 0
-4 8 0
4 -9 0
-4 10 0
5 6 0
5 -7 0
5 8 0
-5 9 0
-5 -10 0
-11 -16 0
-11 17 0
11 -18 0
11 19 0
-11 20 0
12 -16 0
-12 -17 0
12 18 0
12 19 0
-12 -20 0
13 -16 0
-13 -17 0
13 -18 0
13 -19 0
-13 20 0
14 -16 0
14 -17 0
14 -18 0
14 -19 0
14 20 0
15 16 0
15 -17 0
-15 18 0
15 -19 0
15 -20 0
-21 -26 0
-21 -27 0
21 -28 0
21 -29 0
-21 30 0
-22 26 0
-22 -27 0
22 -28 0
-22 29 0
-22 -30 0
-23 26 0
-23 -27 0
23 -28 0
23 29 0
-23 -30 0
-24 26 0
-24 -27 0
24 28 0
24 -29 0
-24 -30 0
25 -26 0
25 -27 0
25 -28 0
25 -29 0
-25 30 0
-31 36 0
-31 -37 0
31 -38 0
31 39 0
31 -40 0
-32 -36 0
-32 37 0
-32 -38 0
32 39 0
32 -40 0
-33 -36 0
33 -37 0
33 38 0
33 -39 0
-33 40 0
-34 -36 0
-34 -37 0
34 38 0
-34 39 0
-34 40 0
35 -36 0
-35 37 0
-35 38 0
-35 39 0
-35 -40 0
41 -46 0
-41 47 0
41 -48 0
-41 49 0
41 -50 0
42 -46 0
42 -47 0
-42 -48 0
-42 49 0
42 50 0
-43 -46 0
43 -47 0
43 -48 0
43 -49 0
-43 -50 0
-44 46 0
-44 47 0
44 -48 0
44 49 0
44 -50 0
45 -46 0
45 -47 0
-45 48 0
45 49 0
-45 -50 0
-51 56 0
-51 -57 0
51 -58 0
51 59 0
51 60 0
-52 56 0
52 57 0
52 58 0
52 59 0
-52 60 0
-53 -56 0
53 -57 0
53 -58 0
53 -59 0
53 60 0
-54 56 0
-54 -57 0
-54 58 0
-54 -59 0
54 -60 0
-55 56 0
55 57 0
-55 -58 0
55 -59 0
-55 60 0
-61 66 0
61 -67 0
-61 68 0
61 -69 0
61 -70 0
62 -66 0
62 67 0
62 -68 0
-62 69 0
62 -70 0
-63 -66 0
63 -67 0
63 -68 0
63 -69 0
63 70 0
-64 66 0
64 -67 0
64 -68 0
64 -69 0
-64 70 0
65 -66 0
65 -67 0
65 -68 0
-65 69 0
-65 -70 0
71 -76 0
71 -77 0
71 78 0
71 79 0
-71 -80 0
-72 76 0
-72 -77 0
-72 78 0
72 -79 0
72 -80 0
-73 76 0
73 77 0
-73 78 0
73 -79 0
-73 80 0
74 -76 0
-74 77 0
74 -78 0
74 -79 0
74 -80 0
75 -76 0
75 -77 0
-75 -78 0
75 -79 0
75 -80 0
81 -86 0
81 87 0
81 -88 0
-81 89 0
81 -90 0
-82 86 0
-82 87 0
82 88 0
-82 -89 0
82 90 0
83 86 0
-83 87 0
-83 88 0
83 89 0
83 -90 0
84 86 0
-84 87 0
-84 -88 0
-84 89 0
-84 -90 0
-85 -86 0
-85 87 0
-85 -88 0
-85 89 0
85 -90 0
-91 -96 0
91 -97 0
91 98 0
91 99 0
91 -100 0
92 96 0
-92 -97 0
92 98 0
92 -99 0
-92 100 0
-93 96 0
93 97 0
93 -98 0
93 -99 0
93 -100 0
-94 96 0
-94 97 0
-94 -98 0
94 99 0
-94 100 0
95 -96 0
-95 -97 0
-95 98 0
-95 99 0
95 100 0
-101 106 0
101 -107 0
101 -108 0
101 -109 0
101 110 0
102 -106 0
-102 -107 0
-102 108 0
-102 109 0
102 110 0
103 106 0
-103 -107 0
-103 -108 0
103 -109 0
-103 110 0
104 -106 0
104 107 0
-104 108 0
-104 109 0
-104 110 0
105 106 0
105 -107 0
105 -108 0
-105 109 0
-105 -110 0
111 116 0
111 -117 0
111 118 0
-111 119 0
111 -120 0
112 -116 0
-112 117 0
112 -118 0
112 -119 0
112 -120 0
113 -116 0
113 -117 0
113 118 0
113 119 0
-113 120 0
-114 116 0
114 -117 0
-114 118 0
-114 -119 0
-114 120 0
115 -116 0
-115 117 0
115 -118 0
115 -119 0
-115 120 0
121 -126 0
121 127 0
121 128 0
-121 -129 0
-121 130 0
-122 126 0
122 -127 0
122 128 0
122 -129 0
122 -130 0
-123 126 0
123 -127 0
123 128 0
-123 129 0
-123 130 0
124 126 0
124 -127 0
124 -128 0
124 -129 0
-124 130 0
125 126 0
-125 127 0
-125 128 0
-125 129 0
125 130 0
131 136 0
131 -137 0
-131 -138 0
-131 -139 0
131 140 0
-132 136 0
132 137 0
-132 138 0
-132 -139 0
132 -140 0
-133 -136 0
-133 137 0
133 -138 0
133 -139 0
133 140 0
134 136 0
-134 137 0
134 138 0
134 139 0
-134 140 0
135 136 0
-135 137 0
-135 138 0
-135 139 0
135 -140 0
141 146 0
141 -147 0
141 -148 0
-141 149 0
141 -150 0
-142 -146 0
142 -147 0
-142 148 0
142 -149 0
-142 -150 0
-143 -146 0
143 -147 0
143 148 0
143 149 0
-143 150 0
144 146 0
144 147 0
144 148 0
144 149 0
144 -150 0
-145 146 0
145 -147 0
-145 148 0
-145 149 0
145 -150 0
151 156 0
-151 157 0
151 -158 0
-151 159 0
-151 -160 0
-152 156 0
152 157 0
152 -158 0
-152 -159 0
-152 160 0
-153 156 0
-153 157 0
-153 158 0
-153 -159 0
153 -160 0
154 -156 0
-154 157 0
154 -158 0
154 -159 0
-154 160 0
-155 -156 0
-155 -157 0
-155 -158 0
155 -159 0
155 -160 0
-161 166 0
161 -167 0
-161 168 0
-161 -169 0
-161 -170 0
-162 166 0
162 -167 0
-162 -168 0
162 169 0
-162 -170 0
163 -166 0
-163 167 0
-163 168 0
163 -169 0
163 -170 0
164 -166 0
-164 -167 0
164 168 0
164 -169 0
-164 -170 0
165 166 0
-165 -167 0
165 -168 0
-165 -169 0
165 -170 0
171 -176 0
171 -177 0
171 -178 0
-171 179 0
-171 180 0
172 176 0
172 177 0
-172 178 0
-172 -179 0
172 -180 0
-173 176 0
173 177 0
173 -178 0
173 179 0
-173 -180 0
-174 176 0
-174 177 0
-174 178 0
174 -179 0
174 -180 0
-175 -176 0
175 -177 0
175 -178 0
175 179 0
175 -180 0
181 -186 0
181 -187 0
181 -188 0
-181 -189 0
-181 -190 0
182 -186 0
-182 -187 0
182 -188 0
-182 189 0
182 -190 0
183 186 0
183 -187 0
-183 -188 0
183 189 0
183 -190 0
184 -186 0
184 -187 0
184 -188 0
184 -189 0
184 -190 0
-185 -186 0
185 187 0
-185 -188 0
-185 189 0
185 190 0
-191 196 0
-191 197 0
-191 198 0
191 199 0
191 -200 0
192 196 0
192 197 0
192 198 0
192 -199 0
-192 200 0
-193 -196 0
193 -197 0
-193 -198 0
-193 199 0
-193 -200 0
-194 196 0
-194 -197 0
-194 198 0
-194 199 0
194 200 0
195 196 0
-195 197 0
-195 -198 0
-195 199 0
195 -200 0
-94 -57 0
-42 -66 0
-165 140 0
-154 128 0
55 87 0
-112 78 0
181 126 0
75 19 0
52 -50 0
143 57 0
-74 -190 0
-115 -128 0
163 26 0
134 -98 0
195 -170 0
-73 -6 0
-163 -188 0
135 87 0
23 -148 0
131 189 0
12 -198 0
132 160 0
-134 -108 0
53 -86 0
-71 39 0
-41 19 0
121 27 0
-154 150 0
-13 -109 0
84 -57 0
-113 -140 0
93 187 0
134 -20 0
74 117 0
-102 127 0
-174 -149 0
122 186 0
155 -40 0
-34 77 0
105 -149 0
